g3 0 1 0	# problem d7n5R2R6d05d1
 5 7 1 0 2	# vars, constraints, objectives, ranges, eqns
 4 1	# nonlinear constraints, objectives
 0 0	# network constraints: nonlinear, linear
 5 5 5	# nonlinear vars in constraints, objectives, both
 0 0 0 1	# linear network variables; functions; arith, flags
 0 0 0 0 0	# discrete variables: binary, integer, nonlinear (b,c,o)
 35 5	# nonzeros in Jacobian, gradients
 0 0	# max name lengths: constraints, variables
 0 0 0 0 0	# common exprs: b,c,o,c1,o1
b
0 0.87 2.7
0 0.37 2.01
0 0.47 2.28
0 0.87 2.71
0 0.86 2.28
r
2 81.019
2 230.448
2 1482.34
2 3963.76
4 42.005
4 35.168
2 27.762
C0
o54
9
o16
o2
o2
n5.15
v0
v0
o2
o2
n9.56
v0
v1
o2
o2
n8.03
v0
v3
o2
o2
n3.86
v1
v1
o2
o2
n5.93
v2
v2
o16
o2
o2
n9.39
v2
v3
o2
o2
n0.45
v2
v4
o2
o2
n6.16
v3
v3
o2
o2
n1.78
v4
v4
C1
o54
25
o2
o2
n6.84
v0
v0
o2
o2
n5.94
v0
v1
o2
o2
n7.54
v0
v3
o2
o2
n5.73
v1
v1
o2
o2
n9.04
v2
v2
o2
o2
n0.33
v2
v3
o2
o2
n3.39
v2
v4
o2
o2
n7.89
v3
v3
o2
o2
n1.94
v4
v4
o2
o2
o2
n2.44
v0
v0
v2
o16
o2
o2
o2
n7.25
v0
v1
v3
o2
o2
o2
n3.33
v0
v1
v4
o2
o2
o2
n0.45
v1
v1
v1
o2
o2
o2
n4.04
v1
v1
v2
o2
o2
o2
n3.13
v1
v1
v3
o2
o2
o2
n1.95
v1
v1
v4
o2
o2
o2
n7.93
v1
v2
v4
o16
o2
o2
o2
n5.67
v1
v3
v4
o2
o2
o2
n6.72
v1
v4
v4
o2
o2
o2
n1.41
v2
v2
v2
o2
o2
o2
n0.53
v2
v2
v4
o2
o2
o2
n5.02
v2
v3
v4
o2
o2
o2
n0.33
v2
v4
v4
o2
o2
o2
n1.17
v3
v3
v3
o2
o2
o2
n2.6
v3
v3
v4
C2
o54
68
o2
o2
n7.68
v0
v0
o2
o2
n0.46
v0
v1
o2
o2
n5.65
v0
v3
o2
o2
n2.64
v1
v1
o2
o2
n0.37
v2
v2
o2
o2
n0.62
v2
v3
o2
o2
n3.64
v2
v4
o2
o2
n3.23
v3
v3
o2
o2
n9.47
v4
v4
o2
o2
o2
n8.96
v0
v0
v2
o2
o2
o2
n4.91
v0
v1
v3
o2
o2
o2
n5.42
v0
v1
v4
o2
o2
o2
n7.18
v1
v1
v1
o2
o2
o2
n6.58
v1
v1
v2
o2
o2
o2
n1.4
v1
v1
v3
o2
o2
o2
n4.36
v1
v1
v4
o2
o2
o2
n7.81
v1
v2
v4
o2
o2
o2
n6.27
v1
v3
v4
o2
o2
o2
n2.61
v1
v4
v4
o2
o2
o2
n5.52
v2
v2
v2
o2
o2
o2
n1.47
v2
v2
v4
o2
o2
o2
n5.19
v2
v3
v4
o2
o2
o2
n9.83
v2
v4
v4
o2
o2
o2
n3.08
v3
v3
v3
o2
o2
o2
n8.89
v3
v3
v4
o2
o2
o2
o2
n8.78
v0
v0
v0
v1
o2
o2
o2
o2
n1.64
v0
v0
v0
v3
o2
o2
o2
o2
n9.45
v0
v0
v0
v4
o2
o2
o2
o2
n7.59
v0
v0
v1
v1
o2
o2
o2
o2
n6.01
v0
v0
v1
v3
o2
o2
o2
o2
n0.71
v0
v0
v2
v2
o2
o2
o2
o2
n6.14
v0
v0
v3
v3
o2
o2
o2
o2
n9.24
v0
v0
v3
v4
o2
o2
o2
o2
n5.81
v0
v0
v4
v4
o2
o2
o2
o2
n1.76
v0
v1
v1
v2
o2
o2
o2
o2
n5.79
v0
v1
v1
v3
o2
o2
o2
o2
n8.32
v0
v1
v1
v4
o16
o2
o2
o2
o2
n4.74
v0
v1
v2
v2
o2
o2
o2
o2
n0.86
v0
v1
v2
v3
o2
o2
o2
o2
n5.5
v0
v1
v2
v4
o2
o2
o2
o2
n1.96
v0
v1
v3
v3
o2
o2
o2
o2
n5.97
v0
v2
v3
v3
o2
o2
o2
o2
n5.9
v0
v2
v3
v4
o16
o2
o2
o2
o2
n1.41
v0
v2
v4
v4
o2
o2
o2
o2
n1.14
v0
v3
v4
v4
o2
o2
o2
o2
n9.44
v0
v4
v4
v4
o2
o2
o2
o2
n8.36
v1
v1
v1
v2
o2
o2
o2
o2
n4.51
v1
v1
v1
v3
o2
o2
o2
o2
n2.99
v1
v1
v2
v3
o2
o2
o2
o2
n3.33
v1
v1
v2
v4
o2
o2
o2
o2
n6.35
v1
v1
v3
v4
o2
o2
o2
o2
n7.73
v1
v1
v4
v4
o16
o2
o2
o2
o2
n4.5
v1
v2
v2
v2
o2
o2
o2
o2
n6.75
v1
v2
v2
v3
o2
o2
o2
o2
n8.82
v1
v2
v3
v3
o2
o2
o2
o2
n4.23
v1
v2
v3
v4
o16
o2
o2
o2
o2
n7.36
v1
v3
v3
v3
o2
o2
o2
o2
n3.7
v1
v3
v4
v4
o16
o2
o2
o2
o2
n1.09
v2
v2
v2
v3
o2
o2
o2
o2
n6.99
v2
v2
v2
v4
o2
o2
o2
o2
n4.07
v2
v2
v3
v4
o2
o2
o2
o2
n8.22
v2
v2
v4
v4
o2
o2
o2
o2
n1.61
v2
v3
v3
v4
o2
o2
o2
o2
n9.63
v2
v3
v4
v4
o16
o2
o2
o2
o2
n5.41
v3
v3
v3
v3
o2
o2
o2
o2
n0.89
v3
v3
v4
v4
o2
o2
o2
o2
n9.95
v3
v4
v4
v4
o2
o2
o2
o2
n8.46
v4
v4
v4
v4
C3
o54
136
o2
o2
n2.93
v0
v0
o2
o2
n0.94
v0
v1
o2
o2
n4.71
v0
v3
o2
o2
n7.98
v1
v1
o2
o2
n1.53
v2
v2
o2
o2
n7.99
v2
v3
o2
o2
n4.44
v2
v4
o2
o2
n8.14
v3
v3
o2
o2
n8.36
v4
v4
o16
o2
o2
o2
n6.44
v0
v0
v2
o2
o2
o2
n7.87
v0
v1
v3
o2
o2
o2
n5.91
v0
v1
v4
o2
o2
o2
n7
v1
v1
v1
o2
o2
o2
n5.43
v1
v1
v2
o16
o2
o2
o2
n9.68
v1
v1
v3
o2
o2
o2
n6.43
v1
v1
v4
o2
o2
o2
n2.45
v1
v2
v4
o2
o2
o2
n9.49
v1
v3
v4
o2
o2
o2
n5.88
v1
v4
v4
o16
o2
o2
o2
n9.74
v2
v2
v2
o2
o2
o2
n6.36
v2
v2
v4
o2
o2
o2
n5.37
v2
v3
v4
o2
o2
o2
n4.72
v2
v4
v4
o2
o2
o2
n8.15
v3
v3
v3
o2
o2
o2
n3.44
v3
v3
v4
o2
o2
o2
o2
n0.01
v0
v0
v0
v1
o2
o2
o2
o2
n8.71
v0
v0
v0
v3
o16
o2
o2
o2
o2
n4.91
v0
v0
v0
v4
o2
o2
o2
o2
n9.2
v0
v0
v1
v1
o2
o2
o2
o2
n9.8
v0
v0
v1
v3
o2
o2
o2
o2
n7.93
v0
v0
v2
v2
o2
o2
o2
o2
n4.05
v0
v0
v3
v3
o2
o2
o2
o2
n8.84
v0
v0
v3
v4
o2
o2
o2
o2
n1.08
v0
v0
v4
v4
o2
o2
o2
o2
n4.64
v0
v1
v1
v2
o2
o2
o2
o2
n1.55
v0
v1
v1
v3
o2
o2
o2
o2
n7.49
v0
v1
v1
v4
o2
o2
o2
o2
n1.94
v0
v1
v2
v2
o2
o2
o2
o2
n9.07
v0
v1
v2
v3
o2
o2
o2
o2
n7.72
v0
v1
v2
v4
o2
o2
o2
o2
n1.63
v0
v1
v3
v3
o2
o2
o2
o2
n5.17
v0
v2
v3
v3
o2
o2
o2
o2
n6.51
v0
v2
v3
v4
o2
o2
o2
o2
n0.79
v0
v2
v4
v4
o2
o2
o2
o2
n1.79
v0
v3
v4
v4
o2
o2
o2
o2
n2.56
v0
v4
v4
v4
o2
o2
o2
o2
n5.6
v1
v1
v1
v2
o2
o2
o2
o2
n1.85
v1
v1
v1
v3
o2
o2
o2
o2
n6.52
v1
v1
v2
v3
o2
o2
o2
o2
n0.38
v1
v1
v2
v4
o16
o2
o2
o2
o2
n7.94
v1
v1
v3
v4
o2
o2
o2
o2
n0.94
v1
v1
v4
v4
o2
o2
o2
o2
n7.55
v1
v2
v2
v2
o2
o2
o2
o2
n6.17
v1
v2
v2
v3
o2
o2
o2
o2
n8.88
v1
v2
v3
v3
o2
o2
o2
o2
n4.44
v1
v2
v3
v4
o2
o2
o2
o2
n6.23
v1
v3
v3
v3
o2
o2
o2
o2
n6.73
v1
v3
v4
v4
o2
o2
o2
o2
n9.62
v2
v2
v2
v3
o2
o2
o2
o2
n3.75
v2
v2
v2
v4
o2
o2
o2
o2
n1.29
v2
v2
v3
v4
o2
o2
o2
o2
n7.34
v2
v2
v4
v4
o2
o2
o2
o2
n0.48
v2
v3
v3
v4
o2
o2
o2
o2
n5.09
v2
v3
v4
v4
o2
o2
o2
o2
n7.71
v3
v3
v3
v3
o2
o2
o2
o2
n2.36
v3
v3
v4
v4
o2
o2
o2
o2
n5.53
v3
v4
v4
v4
o16
o2
o2
o2
o2
n0.71
v4
v4
v4
v4
o2
o2
o2
o2
o2
n6.95
v0
v0
v0
v0
v0
o16
o2
o2
o2
o2
o2
n6.88
v0
v0
v0
v0
v1
o2
o2
o2
o2
o2
n8.36
v0
v0
v0
v1
v3
o2
o2
o2
o2
o2
n1.22
v0
v0
v0
v1
v4
o2
o2
o2
o2
o2
n8.38
v0
v0
v0
v2
v2
o2
o2
o2
o2
o2
n9.81
v0
v0
v0
v3
v3
o2
o2
o2
o2
o2
n9.2
v0
v0
v0
v3
v4
o16
o2
o2
o2
o2
o2
n9.25
v0
v0
v1
v1
v3
o2
o2
o2
o2
o2
n2.03
v0
v0
v1
v3
v3
o2
o2
o2
o2
o2
n8.12
v0
v0
v1
v4
v4
o2
o2
o2
o2
o2
n3.19
v0
v0
v2
v3
v4
o2
o2
o2
o2
o2
n4.33
v0
v0
v3
v3
v4
o2
o2
o2
o2
o2
n2.43
v0
v1
v1
v1
v1
o2
o2
o2
o2
o2
n2.29
v0
v1
v1
v1
v3
o2
o2
o2
o2
o2
n9.98
v0
v1
v1
v1
v4
o2
o2
o2
o2
o2
n9.01
v0
v1
v1
v2
v3
o2
o2
o2
o2
o2
n3.92
v0
v1
v1
v2
v4
o2
o2
o2
o2
o2
n3.16
v0
v1
v1
v3
v3
o16
o2
o2
o2
o2
o2
n4.54
v0
v1
v1
v3
v4
o16
o2
o2
o2
o2
o2
n6.26
v0
v1
v2
v2
v2
o16
o2
o2
o2
o2
o2
n7.02
v0
v1
v2
v2
v4
o2
o2
o2
o2
o2
n9.88
v0
v1
v2
v4
v4
o2
o2
o2
o2
o2
n9.24
v0
v1
v3
v3
v3
o2
o2
o2
o2
o2
n8.09
v0
v2
v2
v4
v4
o16
o2
o2
o2
o2
o2
n6.13
v0
v2
v3
v3
v3
o2
o2
o2
o2
o2
n9.15
v0
v2
v3
v3
v4
o2
o2
o2
o2
o2
n7.16
v0
v2
v3
v4
v4
o2
o2
o2
o2
o2
n5.43
v0
v3
v3
v3
v3
o2
o2
o2
o2
o2
n8.54
v0
v3
v4
v4
v4
o16
o2
o2
o2
o2
o2
n5.79
v0
v4
v4
v4
v4
o2
o2
o2
o2
o2
n6.68
v1
v1
v1
v1
v4
o2
o2
o2
o2
o2
n9.29
v1
v1
v1
v2
v2
o2
o2
o2
o2
o2
n4.52
v1
v1
v1
v2
v3
o2
o2
o2
o2
o2
n4.46
v1
v1
v1
v3
v3
o2
o2
o2
o2
o2
n7.25
v1
v1
v1
v3
v4
o2
o2
o2
o2
o2
n3.1
v1
v1
v1
v4
v4
o2
o2
o2
o2
o2
n8.88
v1
v1
v2
v2
v2
o2
o2
o2
o2
o2
n2.66
v1
v1
v2
v2
v3
o2
o2
o2
o2
o2
n6.52
v1
v1
v2
v3
v3
o2
o2
o2
o2
o2
n6.37
v1
v1
v2
v3
v4
o2
o2
o2
o2
o2
n3.57
v1
v1
v3
v3
v4
o16
o2
o2
o2
o2
o2
n5.02
v1
v1
v3
v4
v4
o16
o2
o2
o2
o2
o2
n8.64
v1
v2
v2
v2
v2
o2
o2
o2
o2
o2
n9.59
v1
v2
v2
v2
v3
o2
o2
o2
o2
o2
n1.68
v1
v2
v2
v2
v4
o2
o2
o2
o2
o2
n8.76
v1
v2
v2
v3
v3
o2
o2
o2
o2
o2
n3.82
v1
v2
v2
v3
v4
o2
o2
o2
o2
o2
n0.31
v1
v2
v2
v4
v4
o2
o2
o2
o2
o2
n2.61
v1
v2
v3
v3
v3
o16
o2
o2
o2
o2
o2
n0.51
v1
v2
v3
v3
v4
o2
o2
o2
o2
o2
n9.14
v1
v2
v3
v4
v4
o16
o2
o2
o2
o2
o2
n0.57
v1
v3
v3
v3
v4
o2
o2
o2
o2
o2
n8.54
v1
v3
v3
v4
v4
o2
o2
o2
o2
o2
n4.25
v1
v3
v4
v4
v4
o2
o2
o2
o2
o2
n0.65
v1
v4
v4
v4
v4
o2
o2
o2
o2
o2
n5.52
v2
v2
v2
v2
v3
o2
o2
o2
o2
o2
n2.1
v2
v2
v2
v4
v4
o2
o2
o2
o2
o2
n0.63
v2
v2
v3
v3
v3
o2
o2
o2
o2
o2
n6.68
v2
v2
v4
v4
v4
o2
o2
o2
o2
o2
n3.3
v2
v3
v3
v3
v3
o2
o2
o2
o2
o2
n5.33
v2
v3
v3
v4
v4
o2
o2
o2
o2
o2
n7.43
v2
v3
v4
v4
v4
o2
o2
o2
o2
o2
n2.41
v2
v4
v4
v4
v4
o2
o2
o2
o2
o2
n6.15
v3
v3
v3
v3
v3
o2
o2
o2
o2
o2
n9.86
v3
v3
v3
v3
v4
o2
o2
o2
o2
o2
n1.35
v3
v3
v3
v4
v4
o2
o2
o2
o2
o2
n5.67
v3
v3
v4
v4
v4
o2
o2
o2
o2
o2
n2.84
v3
v4
v4
v4
v4
C4
n0
C5
n0
C6
n0
O0 0
o54
393
o2
o2
n4.82
v0
v0
o2
o2
n3.33
v0
v1
o2
o2
n8.55
v0
v3
o2
o2
n7.46
v1
v1
o2
o2
n4.53
v2
v2
o2
o2
n7.94
v2
v3
o2
o2
n4.37
v2
v4
o2
o2
n4.71
v3
v3
o2
o2
n5.38
v4
v4
o2
o2
o2
n4.53
v0
v0
v2
o2
o2
o2
n8.45
v0
v1
v3
o2
o2
o2
n4.87
v0
v1
v4
o2
o2
o2
n5.08
v1
v1
v1
o2
o2
o2
n9.41
v1
v1
v2
o2
o2
o2
n0.04
v1
v1
v3
o16
o2
o2
o2
n4.47
v1
v1
v4
o2
o2
o2
n1.21
v1
v2
v4
o16
o2
o2
o2
n0.23
v1
v3
v4
o2
o2
o2
n3.22
v1
v4
v4
o2
o2
o2
n5.88
v2
v2
v2
o16
o2
o2
o2
n6.41
v2
v2
v4
o2
o2
o2
n2.79
v2
v3
v4
o2
o2
o2
n7.69
v2
v4
v4
o2
o2
o2
n4.69
v3
v3
v3
o2
o2
o2
n4.85
v3
v3
v4
o2
o2
o2
o2
n9.02
v0
v0
v0
v1
o16
o2
o2
o2
o2
n0.87
v0
v0
v0
v3
o2
o2
o2
o2
n8.36
v0
v0
v0
v4
o2
o2
o2
o2
n9.9
v0
v0
v1
v1
o2
o2
o2
o2
n6.23
v0
v0
v1
v3
o2
o2
o2
o2
n1.21
v0
v0
v2
v2
o2
o2
o2
o2
n6.07
v0
v0
v3
v3
o2
o2
o2
o2
n3.09
v0
v0
v3
v4
o2
o2
o2
o2
n7.64
v0
v0
v4
v4
o2
o2
o2
o2
n2.75
v0
v1
v1
v2
o2
o2
o2
o2
n9.88
v0
v1
v1
v3
o2
o2
o2
o2
n4.3
v0
v1
v1
v4
o2
o2
o2
o2
n4.14
v0
v1
v2
v2
o2
o2
o2
o2
n0.94
v0
v1
v2
v3
o2
o2
o2
o2
n7.11
v0
v1
v2
v4
o2
o2
o2
o2
n3.21
v0
v1
v3
v3
o2
o2
o2
o2
n7.25
v0
v2
v3
v3
o2
o2
o2
o2
n9.72
v0
v2
v3
v4
o2
o2
o2
o2
n3.96
v0
v2
v4
v4
o2
o2
o2
o2
n1.99
v0
v3
v4
v4
o2
o2
o2
o2
n3.44
v0
v4
v4
v4
o2
o2
o2
o2
n9.86
v1
v1
v1
v2
o2
o2
o2
o2
n0.41
v1
v1
v1
v3
o2
o2
o2
o2
n9.23
v1
v1
v2
v3
o2
o2
o2
o2
n9.62
v1
v1
v2
v4
o16
o2
o2
o2
o2
n8.47
v1
v1
v3
v4
o2
o2
o2
o2
n6.34
v1
v1
v4
v4
o2
o2
o2
o2
n5.19
v1
v2
v2
v2
o16
o2
o2
o2
o2
n9.85
v1
v2
v2
v3
o2
o2
o2
o2
n9.9
v1
v2
v3
v3
o16
o2
o2
o2
o2
n8.91
v1
v2
v3
v4
o2
o2
o2
o2
n8.16
v1
v3
v3
v3
o2
o2
o2
o2
n3.42
v1
v3
v4
v4
o2
o2
o2
o2
n7.73
v2
v2
v2
v3
o2
o2
o2
o2
n1.21
v2
v2
v2
v4
o2
o2
o2
o2
n2.25
v2
v2
v3
v4
o2
o2
o2
o2
n4.07
v2
v2
v4
v4
o2
o2
o2
o2
n8.15
v2
v3
v3
v4
o2
o2
o2
o2
n2.12
v2
v3
v4
v4
o2
o2
o2
o2
n6.24
v3
v3
v3
v3
o2
o2
o2
o2
n0.49
v3
v3
v4
v4
o2
o2
o2
o2
n4.52
v3
v4
v4
v4
o2
o2
o2
o2
n7.46
v4
v4
v4
v4
o2
o2
o2
o2
o2
n3.87
v0
v0
v0
v0
v0
o2
o2
o2
o2
o2
n8.1
v0
v0
v0
v0
v1
o2
o2
o2
o2
o2
n3.15
v0
v0
v0
v1
v3
o2
o2
o2
o2
o2
n2.38
v0
v0
v0
v1
v4
o2
o2
o2
o2
o2
n5.21
v0
v0
v0
v2
v2
o2
o2
o2
o2
o2
n2.04
v0
v0
v0
v3
v3
o2
o2
o2
o2
o2
n0.43
v0
v0
v0
v3
v4
o2
o2
o2
o2
o2
n4.96
v0
v0
v1
v1
v3
o2
o2
o2
o2
o2
n9.38
v0
v0
v1
v3
v3
o2
o2
o2
o2
o2
n1.44
v0
v0
v1
v4
v4
o2
o2
o2
o2
o2
n1.09
v0
v0
v2
v3
v4
o2
o2
o2
o2
o2
n1.13
v0
v0
v3
v3
v4
o2
o2
o2
o2
o2
n8.52
v0
v1
v1
v1
v1
o2
o2
o2
o2
o2
n4.93
v0
v1
v1
v1
v3
o2
o2
o2
o2
o2
n7.83
v0
v1
v1
v1
v4
o2
o2
o2
o2
o2
n0.77
v0
v1
v1
v2
v3
o2
o2
o2
o2
o2
n2.96
v0
v1
v1
v2
v4
o2
o2
o2
o2
o2
n7.38
v0
v1
v1
v3
v3
o2
o2
o2
o2
o2
n2.1
v0
v1
v1
v3
v4
o2
o2
o2
o2
o2
n5.11
v0
v1
v2
v2
v2
o2
o2
o2
o2
o2
n7.65
v0
v1
v2
v2
v4
o2
o2
o2
o2
o2
n7.92
v0
v1
v2
v4
v4
o2
o2
o2
o2
o2
n6.17
v0
v1
v3
v3
v3
o2
o2
o2
o2
o2
n5.39
v0
v2
v2
v4
v4
o2
o2
o2
o2
o2
n9.9
v0
v2
v3
v3
v3
o16
o2
o2
o2
o2
o2
n9.2
v0
v2
v3
v3
v4
o2
o2
o2
o2
o2
n6.48
v0
v2
v3
v4
v4
o2
o2
o2
o2
o2
n2.68
v0
v3
v3
v3
v3
o2
o2
o2
o2
o2
n8.29
v0
v3
v4
v4
v4
o2
o2
o2
o2
o2
n7.9
v0
v4
v4
v4
v4
o2
o2
o2
o2
o2
n8.17
v1
v1
v1
v1
v4
o2
o2
o2
o2
o2
n9.07
v1
v1
v1
v2
v2
o2
o2
o2
o2
o2
n2.87
v1
v1
v1
v2
v3
o2
o2
o2
o2
o2
n6.48
v1
v1
v1
v3
v3
o2
o2
o2
o2
o2
n0.95
v1
v1
v1
v3
v4
o2
o2
o2
o2
o2
n0.01
v1
v1
v1
v4
v4
o2
o2
o2
o2
o2
n6.63
v1
v1
v2
v2
v2
o2
o2
o2
o2
o2
n6.18
v1
v1
v2
v2
v3
o2
o2
o2
o2
o2
n6.13
v1
v1
v2
v3
v3
o2
o2
o2
o2
o2
n7.98
v1
v1
v2
v3
v4
o16
o2
o2
o2
o2
o2
n8.15
v1
v1
v3
v3
v4
o16
o2
o2
o2
o2
o2
n1.31
v1
v1
v3
v4
v4
o2
o2
o2
o2
o2
n4.93
v1
v2
v2
v2
v2
o2
o2
o2
o2
o2
n7.35
v1
v2
v2
v2
v3
o2
o2
o2
o2
o2
n5.58
v1
v2
v2
v2
v4
o2
o2
o2
o2
o2
n4.7
v1
v2
v2
v3
v3
o2
o2
o2
o2
o2
n8.11
v1
v2
v2
v3
v4
o2
o2
o2
o2
o2
n0.51
v1
v2
v2
v4
v4
o2
o2
o2
o2
o2
n1.85
v1
v2
v3
v3
v3
o2
o2
o2
o2
o2
n4.53
v1
v2
v3
v3
v4
o2
o2
o2
o2
o2
n6.74
v1
v2
v3
v4
v4
o2
o2
o2
o2
o2
n5.28
v1
v3
v3
v3
v4
o2
o2
o2
o2
o2
n1.07
v1
v3
v3
v4
v4
o2
o2
o2
o2
o2
n2.28
v1
v3
v4
v4
v4
o2
o2
o2
o2
o2
n4.27
v1
v4
v4
v4
v4
o2
o2
o2
o2
o2
n3.51
v2
v2
v2
v2
v3
o2
o2
o2
o2
o2
n6.25
v2
v2
v2
v4
v4
o2
o2
o2
o2
o2
n2.03
v2
v2
v3
v3
v3
o2
o2
o2
o2
o2
n9.88
v2
v2
v4
v4
v4
o2
o2
o2
o2
o2
n0.98
v2
v3
v3
v3
v3
o2
o2
o2
o2
o2
n8.24
v2
v3
v3
v4
v4
o2
o2
o2
o2
o2
n0.92
v2
v3
v4
v4
v4
o2
o2
o2
o2
o2
n3.03
v2
v4
v4
v4
v4
o2
o2
o2
o2
o2
n8.54
v3
v3
v3
v3
v3
o2
o2
o2
o2
o2
n5.94
v3
v3
v3
v3
v4
o2
o2
o2
o2
o2
n0.95
v3
v3
v3
v4
v4
o2
o2
o2
o2
o2
n9.29
v3
v3
v4
v4
v4
o2
o2
o2
o2
o2
n4.46
v3
v4
v4
v4
v4
o2
o2
o2
o2
o2
o2
n7.73
v0
v0
v0
v0
v0
v0
o2
o2
o2
o2
o2
o2
n1.97
v0
v0
v0
v0
v0
v4
o2
o2
o2
o2
o2
o2
n7.39
v0
v0
v0
v0
v1
v1
o2
o2
o2
o2
o2
o2
n8.1
v0
v0
v0
v0
v2
v3
o2
o2
o2
o2
o2
o2
n4.16
v0
v0
v0
v0
v2
v4
o2
o2
o2
o2
o2
o2
n5.95
v0
v0
v0
v0
v3
v4
o2
o2
o2
o2
o2
o2
n7.57
v0
v0
v0
v0
v4
v4
o2
o2
o2
o2
o2
o2
n4.78
v0
v0
v0
v1
v1
v3
o2
o2
o2
o2
o2
o2
n1.92
v0
v0
v0
v1
v2
v2
o2
o2
o2
o2
o2
o2
n2.47
v0
v0
v0
v1
v3
v3
o2
o2
o2
o2
o2
o2
n1.13
v0
v0
v0
v2
v2
v3
o2
o2
o2
o2
o2
o2
n1.92
v0
v0
v0
v2
v2
v4
o2
o2
o2
o2
o2
o2
n9
v0
v0
v0
v2
v3
v3
o16
o2
o2
o2
o2
o2
o2
n5.47
v0
v0
v0
v3
v3
v3
o2
o2
o2
o2
o2
o2
n1.26
v0
v0
v0
v3
v3
v4
o16
o2
o2
o2
o2
o2
o2
n6.38
v0
v0
v1
v1
v1
v1
o2
o2
o2
o2
o2
o2
n1.17
v0
v0
v1
v1
v1
v2
o2
o2
o2
o2
o2
o2
n1.31
v0
v0
v1
v1
v1
v3
o2
o2
o2
o2
o2
o2
n5.09
v0
v0
v1
v1
v1
v4
o2
o2
o2
o2
o2
o2
n3.16
v0
v0
v1
v1
v2
v2
o2
o2
o2
o2
o2
o2
n9.65
v0
v0
v1
v1
v2
v4
o2
o2
o2
o2
o2
o2
n7.97
v0
v0
v1
v1
v3
v3
o16
o2
o2
o2
o2
o2
o2
n7.06
v0
v0
v1
v2
v2
v3
o2
o2
o2
o2
o2
o2
n5.24
v0
v0
v1
v3
v3
v4
o2
o2
o2
o2
o2
o2
n0.09
v0
v0
v2
v2
v2
v2
o2
o2
o2
o2
o2
o2
n5.57
v0
v0
v2
v2
v2
v4
o16
o2
o2
o2
o2
o2
o2
n3.41
v0
v0
v2
v3
v3
v3
o2
o2
o2
o2
o2
o2
n4.72
v0
v0
v2
v3
v3
v4
o16
o2
o2
o2
o2
o2
o2
n2.7
v0
v0
v3
v3
v3
v3
o2
o2
o2
o2
o2
o2
n8.16
v0
v0
v3
v3
v4
v4
o2
o2
o2
o2
o2
o2
n8.1
v0
v0
v3
v4
v4
v4
o2
o2
o2
o2
o2
o2
n5.2
v0
v0
v4
v4
v4
v4
o2
o2
o2
o2
o2
o2
n3.76
v0
v1
v1
v1
v1
v1
o2
o2
o2
o2
o2
o2
n6.69
v0
v1
v1
v1
v1
v2
o2
o2
o2
o2
o2
o2
n9.79
v0
v1
v1
v1
v2
v3
o2
o2
o2
o2
o2
o2
n5.43
v0
v1
v1
v1
v3
v4
o2
o2
o2
o2
o2
o2
n8.31
v0
v1
v1
v2
v2
v4
o2
o2
o2
o2
o2
o2
n3.29
v0
v1
v1
v3
v3
v3
o2
o2
o2
o2
o2
o2
n0.2
v0
v1
v1
v3
v4
v4
o2
o2
o2
o2
o2
o2
n4.17
v0
v1
v2
v2
v2
v2
o2
o2
o2
o2
o2
o2
n4.03
v0
v1
v2
v2
v3
v3
o2
o2
o2
o2
o2
o2
n6.77
v0
v1
v2
v2
v3
v4
o2
o2
o2
o2
o2
o2
n3.7
v0
v1
v2
v2
v4
v4
o2
o2
o2
o2
o2
o2
n6.33
v0
v1
v2
v3
v3
v3
o2
o2
o2
o2
o2
o2
n6.52
v0
v1
v2
v3
v3
v4
o2
o2
o2
o2
o2
o2
n9.37
v0
v1
v3
v3
v3
v3
o2
o2
o2
o2
o2
o2
n8.09
v0
v1
v3
v3
v3
v4
o2
o2
o2
o2
o2
o2
n0.38
v0
v1
v3
v3
v4
v4
o2
o2
o2
o2
o2
o2
n5.7
v0
v1
v3
v4
v4
v4
o2
o2
o2
o2
o2
o2
n4.79
v0
v2
v2
v2
v2
v4
o2
o2
o2
o2
o2
o2
n6.7
v0
v2
v2
v3
v3
v4
o2
o2
o2
o2
o2
o2
n6.94
v0
v2
v2
v3
v4
v4
o2
o2
o2
o2
o2
o2
n3.5
v0
v2
v3
v3
v3
v3
o2
o2
o2
o2
o2
o2
n7.43
v0
v2
v3
v3
v3
v4
o2
o2
o2
o2
o2
o2
n1.69
v0
v2
v3
v3
v4
v4
o16
o2
o2
o2
o2
o2
o2
n8.68
v0
v3
v3
v3
v3
v3
o2
o2
o2
o2
o2
o2
n2.84
v0
v3
v3
v3
v3
v4
o2
o2
o2
o2
o2
o2
n2.9
v0
v3
v3
v3
v4
v4
o2
o2
o2
o2
o2
o2
n8.63
v0
v3
v4
v4
v4
v4
o2
o2
o2
o2
o2
o2
n1.46
v0
v4
v4
v4
v4
v4
o2
o2
o2
o2
o2
o2
n7.77
v1
v1
v1
v1
v1
v2
o2
o2
o2
o2
o2
o2
n9.77
v1
v1
v1
v1
v1
v3
o2
o2
o2
o2
o2
o2
n2.33
v1
v1
v1
v1
v1
v4
o2
o2
o2
o2
o2
o2
n6.71
v1
v1
v1
v1
v2
v2
o2
o2
o2
o2
o2
o2
n4.98
v1
v1
v1
v1
v3
v4
o16
o2
o2
o2
o2
o2
o2
n2.62
v1
v1
v1
v2
v2
v2
o2
o2
o2
o2
o2
o2
n3.88
v1
v1
v1
v2
v2
v3
o2
o2
o2
o2
o2
o2
n5.06
v1
v1
v1
v2
v4
v4
o16
o2
o2
o2
o2
o2
o2
n6.46
v1
v1
v1
v3
v3
v3
o2
o2
o2
o2
o2
o2
n6.22
v1
v1
v1
v3
v3
v4
o2
o2
o2
o2
o2
o2
n9.01
v1
v1
v2
v2
v3
v3
o2
o2
o2
o2
o2
o2
n1.21
v1
v1
v2
v2
v3
v4
o2
o2
o2
o2
o2
o2
n3.42
v1
v1
v2
v3
v3
v3
o2
o2
o2
o2
o2
o2
n1.13
v1
v1
v2
v4
v4
v4
o2
o2
o2
o2
o2
o2
n7.64
v1
v1
v3
v3
v3
v3
o16
o2
o2
o2
o2
o2
o2
n0.11
v1
v1
v4
v4
v4
v4
o2
o2
o2
o2
o2
o2
n1.56
v1
v2
v2
v2
v2
v2
o2
o2
o2
o2
o2
o2
n0.37
v1
v2
v2
v2
v3
v4
o2
o2
o2
o2
o2
o2
n4.69
v1
v2
v2
v3
v3
v4
o2
o2
o2
o2
o2
o2
n4.27
v1
v2
v2
v4
v4
v4
o2
o2
o2
o2
o2
o2
n7.42
v1
v2
v3
v3
v3
v3
o2
o2
o2
o2
o2
o2
n7.49
v1
v2
v3
v3
v4
v4
o2
o2
o2
o2
o2
o2
n2.17
v1
v2
v3
v4
v4
v4
o2
o2
o2
o2
o2
o2
n2.45
v1
v3
v3
v4
v4
v4
o2
o2
o2
o2
o2
o2
n6.18
v2
v2
v2
v2
v2
v2
o2
o2
o2
o2
o2
o2
n5.82
v2
v2
v2
v2
v3
v3
o2
o2
o2
o2
o2
o2
n2.48
v2
v2
v2
v4
v4
v4
o2
o2
o2
o2
o2
o2
n9.52
v2
v2
v3
v3
v3
v3
o2
o2
o2
o2
o2
o2
n0.5
v2
v2
v3
v3
v4
v4
o2
o2
o2
o2
o2
o2
n8.93
v2
v2
v3
v4
v4
v4
o2
o2
o2
o2
o2
o2
n3
v2
v3
v3
v3
v3
v3
o16
o2
o2
o2
o2
o2
o2
n7.61
v2
v3
v3
v3
v4
v4
o2
o2
o2
o2
o2
o2
n0.79
v3
v3
v3
v3
v4
v4
o16
o2
o2
o2
o2
o2
o2
n2.45
v4
v4
v4
v4
v4
v4
o2
o2
o2
o2
o2
o2
o2
n1.91
v0
v0
v0
v0
v0
v0
v0
o2
o2
o2
o2
o2
o2
o2
n8.46
v0
v0
v0
v0
v0
v0
v1
o2
o2
o2
o2
o2
o2
o2
n6.65
v0
v0
v0
v0
v0
v0
v4
o2
o2
o2
o2
o2
o2
o2
n7.05
v0
v0
v0
v0
v0
v1
v1
o2
o2
o2
o2
o2
o2
o2
n5.23
v0
v0
v0
v0
v0
v2
v2
o16
o2
o2
o2
o2
o2
o2
o2
n7.09
v0
v0
v0
v0
v0
v2
v3
o2
o2
o2
o2
o2
o2
o2
n9.5
v0
v0
v0
v0
v0
v4
v4
o2
o2
o2
o2
o2
o2
o2
n2.67
v0
v0
v0
v0
v1
v1
v2
o2
o2
o2
o2
o2
o2
o2
n5.2
v0
v0
v0
v0
v1
v1
v3
o2
o2
o2
o2
o2
o2
o2
n6.65
v0
v0
v0
v0
v1
v1
v4
o2
o2
o2
o2
o2
o2
o2
n6.6
v0
v0
v0
v0
v1
v2
v2
o2
o2
o2
o2
o2
o2
o2
n4.09
v0
v0
v0
v0
v1
v3
v3
o2
o2
o2
o2
o2
o2
o2
n9.77
v0
v0
v0
v0
v1
v3
v4
o2
o2
o2
o2
o2
o2
o2
n4.59
v0
v0
v0
v0
v2
v2
v2
o2
o2
o2
o2
o2
o2
o2
n6.23
v0
v0
v0
v0
v2
v3
v3
o2
o2
o2
o2
o2
o2
o2
n7.64
v0
v0
v0
v0
v2
v3
v4
o2
o2
o2
o2
o2
o2
o2
n3.49
v0
v0
v0
v0
v3
v3
v3
o2
o2
o2
o2
o2
o2
o2
n10
v0
v0
v0
v1
v1
v1
v1
o2
o2
o2
o2
o2
o2
o2
n4.09
v0
v0
v0
v1
v1
v1
v2
o2
o2
o2
o2
o2
o2
o2
n9.22
v0
v0
v0
v1
v1
v2
v2
o2
o2
o2
o2
o2
o2
o2
n9.55
v0
v0
v0
v1
v2
v2
v3
o2
o2
o2
o2
o2
o2
o2
n2.28
v0
v0
v0
v1
v2
v2
v4
o2
o2
o2
o2
o2
o2
o2
n1.05
v0
v0
v0
v1
v3
v3
v3
o2
o2
o2
o2
o2
o2
o2
n3.55
v0
v0
v0
v1
v3
v4
v4
o2
o2
o2
o2
o2
o2
o2
n3.11
v0
v0
v0
v2
v2
v3
v3
o16
o2
o2
o2
o2
o2
o2
o2
n0.99
v0
v0
v0
v2
v2
v3
v4
o2
o2
o2
o2
o2
o2
o2
n2.07
v0
v0
v0
v2
v3
v3
v4
o2
o2
o2
o2
o2
o2
o2
n4.71
v0
v0
v0
v2
v3
v4
v4
o2
o2
o2
o2
o2
o2
o2
n5.84
v0
v0
v0
v2
v4
v4
v4
o2
o2
o2
o2
o2
o2
o2
n7.01
v0
v0
v0
v3
v3
v4
v4
o2
o2
o2
o2
o2
o2
o2
n6.4
v0
v0
v0
v4
v4
v4
v4
o2
o2
o2
o2
o2
o2
o2
n7.86
v0
v0
v1
v1
v1
v1
v2
o2
o2
o2
o2
o2
o2
o2
n1.79
v0
v0
v1
v1
v1
v1
v4
o2
o2
o2
o2
o2
o2
o2
n4.92
v0
v0
v1
v1
v1
v2
v4
o2
o2
o2
o2
o2
o2
o2
n9
v0
v0
v1
v1
v1
v3
v3
o2
o2
o2
o2
o2
o2
o2
n2.26
v0
v0
v1
v1
v1
v3
v4
o2
o2
o2
o2
o2
o2
o2
n4.42
v0
v0
v1
v1
v2
v2
v4
o2
o2
o2
o2
o2
o2
o2
n6.62
v0
v0
v1
v1
v2
v3
v4
o2
o2
o2
o2
o2
o2
o2
n3.3
v0
v0
v1
v1
v2
v4
v4
o2
o2
o2
o2
o2
o2
o2
n5.54
v0
v0
v1
v1
v3
v3
v3
o2
o2
o2
o2
o2
o2
o2
n4.95
v0
v0
v1
v1
v4
v4
v4
o2
o2
o2
o2
o2
o2
o2
n6.2
v0
v0
v1
v2
v2
v2
v2
o2
o2
o2
o2
o2
o2
o2
n5.07
v0
v0
v1
v2
v2
v2
v3
o16
o2
o2
o2
o2
o2
o2
o2
n9.19
v0
v0
v1
v2
v2
v2
v4
o2
o2
o2
o2
o2
o2
o2
n1.9
v0
v0
v1
v2
v2
v3
v3
o2
o2
o2
o2
o2
o2
o2
n6.13
v0
v0
v1
v2
v2
v3
v4
o16
o2
o2
o2
o2
o2
o2
o2
n7.66
v0
v0
v1
v2
v2
v4
v4
o2
o2
o2
o2
o2
o2
o2
n5.34
v0
v0
v1
v2
v3
v3
v4
o2
o2
o2
o2
o2
o2
o2
n1.94
v0
v0
v1
v2
v3
v4
v4
o2
o2
o2
o2
o2
o2
o2
n4.56
v0
v0
v1
v2
v4
v4
v4
o2
o2
o2
o2
o2
o2
o2
n8.45
v0
v0
v1
v3
v3
v4
v4
o2
o2
o2
o2
o2
o2
o2
n4.74
v0
v0
v1
v4
v4
v4
v4
o2
o2
o2
o2
o2
o2
o2
n1.93
v0
v0
v2
v2
v2
v2
v2
o2
o2
o2
o2
o2
o2
o2
n4.03
v0
v0
v2
v2
v2
v2
v3
o2
o2
o2
o2
o2
o2
o2
n6.5
v0
v0
v2
v2
v2
v2
v4
o2
o2
o2
o2
o2
o2
o2
n6.03
v0
v0
v2
v2
v2
v4
v4
o2
o2
o2
o2
o2
o2
o2
n2.27
v0
v0
v2
v2
v3
v3
v3
o2
o2
o2
o2
o2
o2
o2
n1.3
v0
v0
v2
v2
v3
v3
v4
o2
o2
o2
o2
o2
o2
o2
n1.56
v0
v0
v2
v3
v3
v3
v3
o2
o2
o2
o2
o2
o2
o2
n6.26
v0
v0
v2
v3
v3
v4
v4
o2
o2
o2
o2
o2
o2
o2
n1.46
v0
v0
v2
v4
v4
v4
v4
o2
o2
o2
o2
o2
o2
o2
n8.52
v0
v0
v3
v3
v3
v3
v4
o2
o2
o2
o2
o2
o2
o2
n4.2
v0
v0
v3
v3
v3
v4
v4
o16
o2
o2
o2
o2
o2
o2
o2
n2.64
v0
v0
v3
v3
v4
v4
v4
o2
o2
o2
o2
o2
o2
o2
n1.9
v0
v1
v1
v1
v1
v2
v3
o2
o2
o2
o2
o2
o2
o2
n5.57
v0
v1
v1
v1
v1
v4
v4
o2
o2
o2
o2
o2
o2
o2
n7.31
v0
v1
v1
v1
v2
v2
v3
o2
o2
o2
o2
o2
o2
o2
n5.54
v0
v1
v1
v1
v2
v3
v3
o2
o2
o2
o2
o2
o2
o2
n7
v0
v1
v1
v1
v2
v3
v4
o2
o2
o2
o2
o2
o2
o2
n3.74
v0
v1
v1
v1
v3
v3
v3
o2
o2
o2
o2
o2
o2
o2
n8.75
v0
v1
v1
v2
v2
v2
v3
o16
o2
o2
o2
o2
o2
o2
o2
n2.73
v0
v1
v1
v2
v2
v3
v4
o2
o2
o2
o2
o2
o2
o2
n9.45
v0
v1
v1
v2
v2
v4
v4
o2
o2
o2
o2
o2
o2
o2
n0.59
v0
v1
v1
v2
v3
v3
v3
o2
o2
o2
o2
o2
o2
o2
n5.33
v0
v1
v1
v2
v3
v3
v4
o2
o2
o2
o2
o2
o2
o2
n4.96
v0
v1
v1
v2
v4
v4
v4
o2
o2
o2
o2
o2
o2
o2
n0.85
v0
v1
v1
v3
v3
v4
v4
o2
o2
o2
o2
o2
o2
o2
n6.06
v0
v1
v2
v2
v2
v2
v2
o2
o2
o2
o2
o2
o2
o2
n8
v0
v1
v2
v2
v2
v3
v3
o2
o2
o2
o2
o2
o2
o2
n2.63
v0
v1
v2
v2
v3
v3
v3
o2
o2
o2
o2
o2
o2
o2
n2.46
v0
v1
v2
v2
v3
v3
v4
o2
o2
o2
o2
o2
o2
o2
n9.91
v0
v1
v2
v3
v3
v3
v4
o2
o2
o2
o2
o2
o2
o2
n8.26
v0
v1
v2
v3
v3
v4
v4
o2
o2
o2
o2
o2
o2
o2
n3.84
v0
v1
v3
v3
v3
v3
v3
o2
o2
o2
o2
o2
o2
o2
n7.36
v0
v1
v3
v3
v3
v4
v4
o2
o2
o2
o2
o2
o2
o2
n0.3
v0
v1
v3
v3
v4
v4
v4
o2
o2
o2
o2
o2
o2
o2
n5.92
v0
v1
v4
v4
v4
v4
v4
o2
o2
o2
o2
o2
o2
o2
n3.67
v0
v2
v2
v2
v2
v2
v2
o2
o2
o2
o2
o2
o2
o2
n3.67
v0
v2
v2
v2
v2
v3
v3
o2
o2
o2
o2
o2
o2
o2
n3.69
v0
v2
v2
v2
v2
v3
v4
o2
o2
o2
o2
o2
o2
o2
n7.97
v0
v2
v2
v2
v3
v3
v3
o2
o2
o2
o2
o2
o2
o2
n4.63
v0
v2
v2
v2
v4
v4
v4
o2
o2
o2
o2
o2
o2
o2
n9.19
v0
v2
v2
v3
v3
v3
v3
o2
o2
o2
o2
o2
o2
o2
n5.97
v0
v2
v3
v3
v3
v3
v4
o16
o2
o2
o2
o2
o2
o2
o2
n8.84
v0
v2
v3
v4
v4
v4
v4
o2
o2
o2
o2
o2
o2
o2
n8.47
v0
v2
v4
v4
v4
v4
v4
o2
o2
o2
o2
o2
o2
o2
n7.2
v0
v3
v3
v3
v3
v3
v3
o2
o2
o2
o2
o2
o2
o2
n4.87
v0
v3
v3
v3
v4
v4
v4
o16
o2
o2
o2
o2
o2
o2
o2
n1.81
v0
v3
v3
v4
v4
v4
v4
o2
o2
o2
o2
o2
o2
o2
n9.17
v0
v3
v4
v4
v4
v4
v4
o2
o2
o2
o2
o2
o2
o2
n3.54
v0
v4
v4
v4
v4
v4
v4
o2
o2
o2
o2
o2
o2
o2
n3.56
v1
v1
v1
v1
v1
v1
v1
o2
o2
o2
o2
o2
o2
o2
n1.72
v1
v1
v1
v1
v1
v1
v2
o2
o2
o2
o2
o2
o2
o2
n7.17
v1
v1
v1
v1
v1
v1
v3
o16
o2
o2
o2
o2
o2
o2
o2
n4.9
v1
v1
v1
v1
v1
v1
v4
o2
o2
o2
o2
o2
o2
o2
n5.53
v1
v1
v1
v1
v1
v2
v2
o2
o2
o2
o2
o2
o2
o2
n8.89
v1
v1
v1
v1
v1
v3
v4
o2
o2
o2
o2
o2
o2
o2
n4.94
v1
v1
v1
v1
v2
v2
v4
o2
o2
o2
o2
o2
o2
o2
n8.43
v1
v1
v1
v1
v2
v3
v3
o2
o2
o2
o2
o2
o2
o2
n0.75
v1
v1
v1
v1
v2
v3
v4
o2
o2
o2
o2
o2
o2
o2
n4.35
v1
v1
v1
v1
v3
v3
v3
o2
o2
o2
o2
o2
o2
o2
n3.67
v1
v1
v1
v1
v3
v3
v4
o2
o2
o2
o2
o2
o2
o2
n2.52
v1
v1
v1
v2
v2
v2
v2
o16
o2
o2
o2
o2
o2
o2
o2
n3.04
v1
v1
v1
v2
v2
v2
v3
o2
o2
o2
o2
o2
o2
o2
n6.28
v1
v1
v1
v2
v2
v3
v3
o2
o2
o2
o2
o2
o2
o2
n1.32
v1
v1
v1
v2
v2
v4
v4
o2
o2
o2
o2
o2
o2
o2
n8.91
v1
v1
v1
v2
v3
v3
v3
o2
o2
o2
o2
o2
o2
o2
n8.69
v1
v1
v1
v2
v3
v3
v4
o2
o2
o2
o2
o2
o2
o2
n7.67
v1
v1
v1
v2
v3
v4
v4
o2
o2
o2
o2
o2
o2
o2
n1.88
v1
v1
v1
v3
v4
v4
v4
o2
o2
o2
o2
o2
o2
o2
n5.98
v1
v1
v2
v2
v2
v2
v4
o2
o2
o2
o2
o2
o2
o2
n6.37
v1
v1
v2
v2
v2
v3
v3
o2
o2
o2
o2
o2
o2
o2
n5.3
v1
v1
v2
v2
v2
v3
v4
o2
o2
o2
o2
o2
o2
o2
n5.85
v1
v1
v2
v2
v3
v3
v4
o2
o2
o2
o2
o2
o2
o2
n3.33
v1
v1
v2
v2
v3
v4
v4
o2
o2
o2
o2
o2
o2
o2
n8.23
v1
v1
v2
v3
v4
v4
v4
o2
o2
o2
o2
o2
o2
o2
n9.95
v1
v1
v2
v4
v4
v4
v4
o2
o2
o2
o2
o2
o2
o2
n2.01
v1
v1
v3
v3
v3
v3
v4
o2
o2
o2
o2
o2
o2
o2
n7.62
v1
v1
v3
v3
v4
v4
v4
o2
o2
o2
o2
o2
o2
o2
n2.31
v1
v1
v3
v4
v4
v4
v4
o2
o2
o2
o2
o2
o2
o2
n7.78
v1
v2
v2
v2
v2
v2
v2
o2
o2
o2
o2
o2
o2
o2
n0.44
v1
v2
v2
v2
v2
v2
v3
o2
o2
o2
o2
o2
o2
o2
n9.61
v1
v2
v2
v2
v2
v2
v4
o2
o2
o2
o2
o2
o2
o2
n6.17
v1
v2
v2
v2
v2
v3
v3
o2
o2
o2
o2
o2
o2
o2
n3.09
v1
v2
v2
v2
v3
v3
v4
o2
o2
o2
o2
o2
o2
o2
n6.76
v1
v2
v2
v2
v3
v4
v4
o2
o2
o2
o2
o2
o2
o2
n2.5
v1
v2
v2
v3
v3
v3
v4
o2
o2
o2
o2
o2
o2
o2
n1.75
v1
v2
v2
v3
v3
v4
v4
o2
o2
o2
o2
o2
o2
o2
n2.25
v1
v2
v3
v3
v3
v4
v4
o16
o2
o2
o2
o2
o2
o2
o2
n7.65
v1
v2
v3
v3
v4
v4
v4
o2
o2
o2
o2
o2
o2
o2
n1.46
v1
v2
v4
v4
v4
v4
v4
o2
o2
o2
o2
o2
o2
o2
n1.53
v1
v3
v3
v3
v3
v3
v3
o2
o2
o2
o2
o2
o2
o2
n8.86
v1
v3
v3
v3
v3
v3
v4
o16
o2
o2
o2
o2
o2
o2
o2
n7.62
v1
v3
v3
v3
v3
v4
v4
o2
o2
o2
o2
o2
o2
o2
n4.54
v1
v3
v3
v4
v4
v4
v4
o2
o2
o2
o2
o2
o2
o2
n5.9
v2
v2
v2
v2
v2
v2
v4
o2
o2
o2
o2
o2
o2
o2
n0.25
v2
v2
v2
v2
v2
v3
v3
o2
o2
o2
o2
o2
o2
o2
n6.96
v2
v2
v2
v2
v2
v3
v4
o2
o2
o2
o2
o2
o2
o2
n4.64
v2
v2
v2
v2
v3
v3
v3
o2
o2
o2
o2
o2
o2
o2
n1.79
v2
v2
v2
v2
v3
v3
v4
o2
o2
o2
o2
o2
o2
o2
n5.13
v2
v2
v2
v2
v3
v4
v4
o2
o2
o2
o2
o2
o2
o2
n1.07
v2
v2
v2
v2
v4
v4
v4
o2
o2
o2
o2
o2
o2
o2
n2.9
v2
v2
v2
v3
v3
v3
v4
o2
o2
o2
o2
o2
o2
o2
n2.56
v2
v2
v2
v3
v3
v4
v4
o2
o2
o2
o2
o2
o2
o2
n2.56
v2
v2
v2
v4
v4
v4
v4
o2
o2
o2
o2
o2
o2
o2
n0.95
v2
v2
v3
v3
v3
v3
v3
o16
o2
o2
o2
o2
o2
o2
o2
n3.21
v2
v2
v3
v3
v3
v4
v4
o16
o2
o2
o2
o2
o2
o2
o2
n9.13
v2
v3
v3
v3
v3
v4
v4
o2
o2
o2
o2
o2
o2
o2
n2.14
v2
v3
v3
v3
v4
v4
v4
o2
o2
o2
o2
o2
o2
o2
n4.91
v3
v3
v3
v3
v3
v3
v3
o2
o2
o2
o2
o2
o2
o2
n8.11
v3
v3
v3
v3
v4
v4
v4
o2
o2
o2
o2
o2
o2
o2
n2.35
v3
v3
v4
v4
v4
v4
v4
o16
o2
o2
o2
o2
o2
o2
o2
n5.45
v3
v4
v4
v4
v4
v4
v4
k4
7
14
21
28
J0 5
0 8.6
1 4.46
2 0.09
3 0.04
4 7.61
J1 5
0 5.86
1 5.88
2 9.26
3 -3.75
4 2.09
J2 5
0 6.44
1 8.94
2 7.6
3 3.52
4 1.83
J3 5
0 8.96
1 6.48
2 6.11
3 5.84
4 9.08
J4 5
0 4.76
1 4.63
2 6.67
3 6.65
4 4.41
J5 5
0 3.76
1 5.53
2 4.33
3 3.65
4 5.98
J6 5
0 5.97
1 3.14
2 7.52
3 5.06
4 -3.84
G0 5
0 9.25
1 4.47
2 0.27
3 -6.97
4 6.3
